\* metodo1 *\
Maximize
Total_de_calorias: 450.01 Alim_Milanesa
Subject To
Limite_inferior_de_carbos: 49.25 Alim_Milanesa >= 88.5071393443
Limite_inferior_de_grasas: 12.09 Alim_Milanesa >= 19.312957958
Limite_inferior_de_proteinas: 36.05 Alim_Milanesa >= 99.058875
Limite_superior_de_carbos: 49.25 Alim_Milanesa <= 97.8236803279
Limite_superior_de_grasas: 12.09 Alim_Milanesa <= 21.3459009009
Limite_superior_de_proteinas: 36.05 Alim_Milanesa <= 109.486125
_C1: 450.01 Alim_Milanesa <= 972.716504209
End
